letting initialStacks = [13, 23, 12, 1, 10, 51, 34, 17, 21, 3, 44, 49, 47, 36, 6, 41, 16, 35, 20, 14, 18, 39, 33, 24, 46, 42, 11, 26, 40, 37, 25, 8, 22, 32, 38, 5, 45, 31, 2, 48, 7, 27, 28, 30, 29, 4, 50, 15, 19, 43, 9]
